results_rootrelaxation/bin012_060_002.srr.sol
solution status: optimal solution found
objective value:                     2.55437665782493
_var737_                           0.0610079575596812 	(obj:1)
_var739_                           0.0397877984084881 	(obj:0)
_var757_                            0.137931034482759 	(obj:0)
_var764_                          0.00795755968169781 	(obj:0)
_var768_                           0.0875331564986736 	(obj:0)
_var769_                             0.29973474801061 	(obj:0)
_var774_                            0.901856763925729 	(obj:0)
_var779_                            0.180371352785145 	(obj:0)
_var780_                           0.0397877984084879 	(obj:0)
_var781_                          0.00265251989389925 	(obj:0)
_var782_                            0.106100795755968 	(obj:0)
_var792_                            0.307692307692308 	(obj:0)
_var815_                            0.151193633952255 	(obj:0)
_var819_                           0.0901856763925733 	(obj:0)
_var820_                            0.087533156498674 	(obj:1)
_var825_                            0.156498673740054 	(obj:0)
_var827_                            0.472148541114058 	(obj:0)
_var832_                            0.779840848806366 	(obj:0)
_var844_                            0.692307692307692 	(obj:0)
_var846_                          0.00530503978779809 	(obj:0)
_var851_                           0.0450928381962866 	(obj:0)
_var854_                            0.135278514588859 	(obj:1)
_var861_                            0.114058355437666 	(obj:1)
_var864_                            0.740053050397878 	(obj:1)
_var865_                           0.0822281167108755 	(obj:1)
_var870_                            0.259946949602122 	(obj:1)
_var872_                            0.323607427055702 	(obj:1)
_var873_                           0.0344827586206891 	(obj:0)
_var878_                           0.0530503978779845 	(obj:0)
_var879_                           0.0610079575596819 	(obj:0)
_var881_                            0.220159151193634 	(obj:0)
_var883_                            0.220159151193634 	(obj:1)
_var884_                           0.0106100795755975 	(obj:0)
_var887_                          0.00265251989389972 	(obj:1)
_var888_                            0.220159151193634 	(obj:0)
_var889_                             0.29973474801061 	(obj:0)
_var891_                            0.472148541114058 	(obj:0)
_var894_                           0.0901856763925728 	(obj:1)
_var897_                            0.114058355437666 	(obj:1)
_var899_                            0.087533156498674 	(obj:0)
_var900_                            0.151193633952255 	(obj:0)
_var901_                            0.212201591511936 	(obj:0)
_var903_                           0.0477453580901855 	(obj:0)
_var906_                          0.00795755968169781 	(obj:1)
_var907_                           0.0954907161803714 	(obj:0)
_var912_                            0.156498673740054 	(obj:0)
_var916_                           0.0397877984084886 	(obj:0)
_var920_                            0.111405835543767 	(obj:0)
_var921_                            0.480106100795756 	(obj:0)
_var922_                            0.140583554376658 	(obj:1)
_var923_                            0.376657824933686 	(obj:0)
_var926_                           0.0901856763925729 	(obj:0)
_var930_                          0.00265251989389972 	(obj:0)
_var931_                           0.0530503978779845 	(obj:1)
_var932_                            0.389920424403183 	(obj:0)
_var933_                            0.225464190981432 	(obj:0)
_var937_                           0.0583554376657823 	(obj:1)
_var939_                            0.103448275862069 	(obj:0)
_var940_                           0.0053050397877982 	(obj:1)
_var943_                           0.0583554376657829 	(obj:1)
